data/benchmarks/bayes/90-10-6-q.cnf
p cnf 460 391
c weights 0.213755 0.786245 1 1 1 1 1 1 1 1 1 1 1 1 1 1 1 1 1 1 1 1 1 1 1 1 1 1 1 1 1 1 1 1 1 1 1 1 1 1 1 1 1 1 1 1 1 1 1 1 1 1 1 1 1 1 1 1 1 1 1 1 1 1 1 1 1 1 1 1 1 1 1 1 1 1 1 1 1 1 1 1 1 1 1 1 1 1 1 1 1 1 1 1 1 1 1 1 1 1 1 1 1 1 1 1 1 1 1 1 1 1 1 1 1 1 1 1 1 1 1 1 1 1 1 1 1 1 1 1 1 1 1 1 1 1 1 1 1 1 1 1 1 1 1 1 1 1 1 1 1 1 1 1 1 1 1 1 1 1 1 1 1 1 1 1 1 1 1 1 1 1 1 1 1 1 1 1 1 1 1 1 1 1 1 1 1 1 1 1 1 1 1 1 1 1 1 1 1 1 0.5 0.5 0.5 0.5 0.5 0.5 0.5 0.5 0.5 0.5 0.5 0.5 0.5 0.5 0.5 0.5 0.0625003 0.9374997 0.722111 0.27788900000000005 0.5 0.5 0.5 0.5 0.5 0.5 0.5 0.5 0.5 0.5 0.5 0.5 0.5 0.5 0.5 0.5 0.5 0.5 0.5 0.5 0.5 0.5 0.5 0.5 0.5 0.5 0.5 0.5 0.973781 0.026218999999999992 0.138597 0.861403 0.721944 0.27805599999999997 0.187536 0.812464 0.5 0.5 0.5 0.5 0.5 0.5 0.5 0.5 0.5 0.5 0.5 0.5 0.5 0.5 0.5 0.5 0.5 0.5 0.5 0.5 0.5 0.5 0.5 0.5 0.5 0.5 0.5 0.5 0.5 0.5 0.5 0.5 0.5 0.5 0.5 0.5 0.5 0.5 0.5 0.5 0.5 0.5 0.5 0.5 0.5 0.5 0.5 0.5 0.5 0.5 0.5 0.5 0.5 0.5 0.5 0.5 0.5 0.5 0.5 0.5 0.5 0.5 0.5 0.5 0.5 0.5 0.5 0.5 0.5 0.5 0.5 0.5 0.5 0.5 0.5 0.5 0.5 0.5 0.5 0.5 0.5 0.5 0.5 0.5 0.5 0.5 0.5 0.5 0.5 0.5 0.5 0.5 0.5 0.5 0.5 0.5 0.5 0.5 0.5 0.5 0.766166 0.233834 0.100123 0.899877 0.00786032 0.99213968 0.339609 0.660391 0.5 0.5 0.5 0.5 0.5 0.5 0.5 0.5 0.5 0.5 0.5 0.5 0.5 0.5 0.5 0.5 0.5 0.5 0.5 0.5 0.5 0.5 0.5 0.5 0.5 0.5 0.5 0.5 0.5 0.5 0.5 0.5 0.5 0.5 0.5 0.5 0.5 0.5 0.5 0.5 0.5 0.5 0.5 0.5 0.5 0.5 0.5 0.5 0.5 0.5 0.5 0.5 0.5 0.5 0.5 0.5 0.5 0.5 0.5 0.5 0.5 0.5 0.5 0.5 0.5 0.5 0.5 0.5 0.5 0.5 0.5 0.5 0.5 0.5 0.5 0.5 0.5 0.5 0.5 0.5 0.5 0.5 0.5 0.5 0.5 0.5 0.5 0.5 0.5 0.5 0.5 0.5 0.5 0.5 0.5 0.5 0.5 0.5 0.5 0.5 0.5 0.5 0.5 0.5 0.5 0.5 0.5 0.5 0.5 0.5 0.5 0.5 0.687895 0.31210499999999997 0.328047 0.671953 0.226875 0.7731250000000001 0.939666 0.060334 0.5 0.5 0.5 0.5 0.5 0.5 0.5 0.5 0.900032 0.09996799999999995 0.464632 0.5353680000000001 0.764383 0.23561699999999997 0.395706 0.604294 0.5 0.5 0.5 0.5 0.5 0.5 0.5 0.5 0.5 0.5 0.5 0.5 0.5 0.5 0.5 0.5 0.5 0.5 0.5 0.5 0.5 0.5 0.5 0.5 0.5 0.5 0.5 0.5 0.5 0.5 0.5 0.5 0.399394 0.600606 0.748989 0.251011 0.401114 0.598886 0.394377 0.605623 0.5 0.5 0.5 0.5 0.5 0.5 0.5 0.5 0.5 0.5 0.5 0.5 0.5 0.5 0.5 0.5 0.5 0.5 0.5 0.5 0.5 0.5 0.5 0.5 0.5 0.5 0.5 0.5 0.5 0.5 0.5 0.5 0.5 0.5 0.5 0.5 0.5 0.5 0.5 0.5 0.5 0.5 0.5 0.5 0.5 0.5 0.5 0.5 0.5 0.5 0.5 0.5 0.5 0.5 0.5 0.5 0.5 0.5 0.5 0.5 0.5 0.5 0.5 0.5 0.5 0.5 0.5 0.5 0.5 0.5 0.5 0.5 0.5 0.5 0.5 0.5 0.5 0.5 0.5 0.5 0.5 0.5 0.5 0.5 0.5 0.5 0.5 0.5 0.5 0.5 0.5 0.5 0.5 0.5 0.5 0.5 0.5 0.5 0.5 0.5 0.5 0.5 0.5 0.5 0.5 0.5 0.5 0.5 0.5 0.5 0.5 0.5 0.5 0.5 0.5 0.5 0.5 0.5 0.5 0.5 0.5 0.5 0.5 0.5 0.5 0.5 0.5 0.5 0.5 0.5 0.5 0.5 0.5 0.5 0.5 0.5 0.5 0.5 0.5 0.5 0.5 0.5 0.5 0.5 0.5 0.5 0.5 0.5 0.5 0.5 0.5 0.5 0.927775 0.07222499999999998 0.898312 0.101688 0.5 0.5 0.5 0.5 0.5 0.5 0.5 0.5 0.5 0.5 0.5 0.5 0.5 0.5 0.5 0.5 0.5 0.5 0.5 0.5 0.5 0.5 0.5 0.5 0.5 0.5 0.5 0.5 0.5 0.5 0.5 0.5 0.5 0.5 0.5 0.5 0.5 0.5 0.5 0.5 0.5 0.5 0.5 0.5 0.5 0.5 0.5 0.5 0.5 0.5 0.5 0.5 0.5 0.5 0.5 0.5 0.5 0.5 0.5 0.5 0.5 0.5 0.5 0.5 0.5 0.5 0.5 0.5 0.5 0.5 0.5 0.5 0.5 0.5 0.5 0.5 0.5 0.5 0.5 0.5 0.5 0.5 0.5 0.5 0.5 0.5 0.5 0.5 0.5 0.5 0.5 0.5 0.5 0.5 0.5 0.5 0.5 0.5 0.5 0.5 0.5 0.5 0.5 0.5 0.5 0.5 0.5 0.5 0.5 0.5 0.5 0.5 0.5 0.5 0.5 0.5 0.5 0.5 0.5 0.5 0.5 0.5 0.5 0.5 0.5 0.5 0.5 0.5 0.5 0.5 0.5 0.5 0.5 0.5 0.5 0.5 0.5 0.5 0.5 0.5 0.5 0.5 0.5 0.5 0.5 0.5 0.5 0.5 0.618208 0.381792 0.859321 0.140679 0.5 0.5 0.5 0.5 0.5 0.5 0.5 0.5 0.5 0.5 0.5 0.5 0.5 0.5 0.5 0.5 0.176645 0.8233550000000001 0.333543 0.6664570000000001 0.18986 0.81014 0.691612 0.308388 0.5 0.5 0.5 0.5 0.5 0.5 0.5 0.5 0.5 0.5 0.5 0.5 0.5 0.5 0.5 0.5 0.5 0.5 0.5 0.5 0.5 0.5 0.5 0.5 0.5 0.5 0.5 0.5 0.5 0.5 0.5 0.5 0.5 0.5 0.5 0.5 0.5 0.5 0.5 0.5 0.5 0.5 0.5 0.5 0.5 0.5 0.5 0.5
-1 -2 0
1 2 0
-2 3 0
2 -3 0
-3 4 0
3 -4 0
-4 5 0
4 -5 0
-5 -109 6 0
-5 109 -6 0
5 -110 6 0
5 110 -6 0
-6 -7 0
6 7 0
-7 8 0
7 -8 0
-8 -9 0
8 9 0
-9 -10 0
9 10 0
-1 11 0
1 -11 0
-11 -2 -12 0
-11 2 12 0
11 -2 -12 0
11 2 12 0
-12 -3 -125 13 0
-12 -3 125 -13 0
-12 3 -126 13 0
-12 3 126 -13 0
12 -3 -127 13 0
12 -3 127 -13 0
12 3 -128 13 0
12 3 128 -13 0
-13 -4 14 0
-13 4 -14 0
13 -4 14 0
13 4 -14 0
-14 -5 15 0
-14 5 15 0
14 -5 15 0
14 5 -15 0
-15 -6 16 0
-15 6 -16 0
15 -6 -16 0
15 6 -16 0
-16 -7 -17 0
-16 7 -17 0
16 -7 -17 0
16 7 17 0
-17 -8 -18 0
-17 8 18 0
17 -8 -18 0
17 8 18 0
-18 -9 19 0
-18 9 19 0
18 -9 19 0
18 9 -19 0
-19 -10 -20 0
-19 10 20 0
19 -10 20 0
19 10 20 0
-11 -21 0
11 21 0
-21 -12 -22 0
-21 12 -22 0
21 -12 22 0
21 12 -22 0
-22 -13 -23 0
-22 13 23 0
22 -13 23 0
22 13 23 0
-23 -14 24 0
-23 14 -24 0
23 -14 24 0
23 14 24 0
-24 -15 -25 0
-24 15 25 0
24 -15 -25 0
24 15 25 0
-25 -16 -26 0
-25 16 26 0
25 -16 -26 0
25 16 -26 0
-26 -17 -179 27 0
-26 -17 179 -27 0
-26 17 -180 27 0
-26 17 180 -27 0
26 -17 -181 27 0
26 -17 181 -27 0
26 17 -182 27 0
26 17 182 -27 0
-27 -18 28 0
-27 18 -28 0
27 -18 -28 0
27 18 28 0
-28 -19 -29 0
-28 19 -29 0
28 -19 29 0
28 19 29 0
-29 -20 -30 0
-29 20 -30 0
29 -20 30 0
29 20 -30 0
-21 31 0
21 -31 0
-31 -22 -32 0
-31 22 32 0
31 -22 32 0
31 22 -32 0
-32 -23 33 0
-32 23 -33 0
32 -23 -33 0
32 23 -33 0
-33 -24 34 0
-33 24 34 0
33 -24 -34 0
33 24 34 0
-34 -25 -35 0
-34 25 35 0
34 -25 -35 0
34 25 -35 0
-35 -26 -36 0
-35 26 36 0
35 -26 36 0
35 26 -36 0
-36 -27 37 0
-36 27 -37 0
36 -27 37 0
36 27 -37 0
-37 -28 38 0
-37 28 -38 0
37 -28 -38 0
37 28 -38 0
-38 -29 39 0
-38 29 39 0
38 -29 39 0
38 29 -39 0
-39 -30 40 0
-39 30 40 0
39 -30 40 0
39 30 -40 0
-31 41 0
31 -41 0
-41 -32 -42 0
-41 32 42 0
41 -32 -42 0
41 32 -42 0
-42 -33 -239 43 0
-42 -33 239 -43 0
-42 33 -240 43 0
-42 33 240 -43 0
42 -33 -241 43 0
42 -33 241 -43 0
42 33 -242 43 0
42 33 242 -43 0
-43 -34 44 0
-43 34 44 0
43 -34 -44 0
43 34 -44 0
-44 -35 -247 45 0
-44 -35 247 -45 0
-44 35 -248 45 0
-44 35 248 -45 0
44 -35 -249 45 0
44 -35 249 -45 0
44 35 -250 45 0
44 35 250 -45 0
-45 -36 46 0
-45 36 -46 0
45 -36 46 0
45 36 -46 0
-46 -37 -47 0
-46 37 47 0
46 -37 47 0
46 37 47 0
-47 -38 48 0
-47 38 -48 0
47 -38 -48 0
47 38 48 0
-48 -39 -49 0
-48 39 49 0
48 -39 -49 0
48 39 -49 0
-49 -40 -267 50 0
-49 -40 267 -50 0
-49 40 -268 50 0
-49 40 268 -50 0
49 -40 -269 50 0
49 -40 269 -50 0
49 40 -270 50 0
49 40 270 -50 0
-41 -51 0
41 51 0
-51 -42 52 0
-51 42 52 0
51 -42 -52 0
51 42 52 0
-52 -43 -53 0
-52 43 -53 0
52 -43 -53 0
52 43 53 0
-53 -44 54 0
-53 44 54 0
53 -44 54 0
53 44 -54 0
-54 -45 -55 0
-54 45 55 0
54 -45 -55 0
54 45 -55 0
-55 -46 -56 0
-55 46 -56 0
55 -46 56 0
55 46 -56 0
-56 -47 57 0
-56 47 -57 0
56 -47 57 0
56 47 -57 0
-57 -48 -58 0
-57 48 -58 0
57 -48 -58 0
57 48 58 0
-58 -49 -59 0
-58 49 -59 0
58 -49 59 0
58 49 59 0
-59 -50 -60 0
-59 50 -60 0
59 -50 60 0
59 50 -60 0
-51 61 0
51 -61 0
-61 -52 -62 0
-61 52 62 0
61 -52 62 0
61 52 -62 0
-62 -53 63 0
-62 53 63 0
62 -53 63 0
62 53 -63 0
-63 -54 -64 0
-63 54 64 0
63 -54 -64 0
63 54 -64 0
-64 -55 -65 0
-64 55 -65 0
64 -55 -65 0
64 55 65 0
-65 -56 -66 0
-65 56 -66 0
65 -56 66 0
65 56 -66 0
-66 -57 -67 0
-66 57 67 0
66 -57 -67 0
66 57 -67 0
-67 -58 68 0
-67 58 -68 0
67 -58 68 0
67 58 68 0
-68 -59 -69 0
-68 59 -69 0
68 -59 69 0
68 59 -69 0
-69 -60 70 0
-69 60 -70 0
69 -60 70 0
69 60 70 0
-61 -347 71 0
-61 347 -71 0
61 -348 71 0
61 348 -71 0
-71 -62 72 0
-71 62 -72 0
71 -62 -72 0
71 62 72 0
-72 -63 73 0
-72 63 73 0
72 -63 -73 0
72 63 73 0
-73 -64 -74 0
-73 64 74 0
73 -64 -74 0
73 64 74 0
-74 -65 75 0
-74 65 -75 0
74 -65 -75 0
74 65 -75 0
-75 -66 76 0
-75 66 -76 0
75 -66 76 0
75 66 -76 0
-76 -67 -77 0
-76 67 77 0
76 -67 77 0
76 67 77 0
-77 -68 78 0
-77 68 -78 0
77 -68 -78 0
77 68 78 0
-78 -69 -79 0
-78 69 -79 0
78 -69 79 0
78 69 -79 0
-79 -70 80 0
-79 70 -80 0
79 -70 80 0
79 70 -80 0
-71 81 0
71 -81 0
-81 -72 -82 0
-81 72 82 0
81 -72 82 0
81 72 82 0
-82 -73 83 0
-82 73 -83 0
82 -73 83 0
82 73 -83 0
-83 -74 -84 0
-83 74 84 0
83 -74 84 0
83 74 84 0
-84 -75 85 0
-84 75 85 0
84 -75 -85 0
84 75 85 0
-85 -76 -86 0
-85 76 -86 0
85 -76 -86 0
85 76 86 0
-86 -77 87 0
-86 77 87 0
86 -77 87 0
86 77 -87 0
-87 -78 88 0
-87 78 88 0
87 -78 -88 0
87 78 -88 0
-88 -79 -89 0
-88 79 -89 0
88 -79 89 0
88 79 -89 0
-89 -80 90 0
-89 80 90 0
89 -80 -90 0
89 80 -90 0
-81 -423 91 0
-81 423 -91 0
81 -424 91 0
81 424 -91 0
-91 -82 92 0
-91 82 -92 0
91 -82 92 0
91 82 92 0
-92 -83 93 0
-92 83 -93 0
92 -83 93 0
92 83 93 0
-93 -84 -433 94 0
-93 -84 433 -94 0
-93 84 -434 94 0
-93 84 434 -94 0
93 -84 -435 94 0
93 -84 435 -94 0
93 84 -436 94 0
93 84 436 -94 0
-94 -85 95 0
-94 85 -95 0
94 -85 95 0
94 85 95 0
-95 -86 -96 0
-95 86 96 0
95 -86 -96 0
95 86 96 0
-96 -87 -97 0
-96 87 -97 0
96 -87 97 0
96 87 -97 0
-97 -88 -98 0
-97 88 98 0
97 -88 -98 0
97 88 -98 0
-98 -89 -99 0
-98 89 99 0
98 -89 99 0
98 89 -99 0
-99 -90 100 0
-99 90 -100 0
99 -90 -100 0
99 90 -100 0
100 0
