data/benchmarks/bayes/90-10-6-q.gr
p tw 460 345
7 17
67 68
49 270
99 100
67 77
42 240
8 9
8 18
40 50
41 42
73 74
41 51
25 34
73 83
17 179
14 15
14 24
74 75
74 84
15 16
47 48
15 25
12 127
47 57
59 68
48 49
48 58
80 90
81 82
33 42
81 91
22 23
84 93
22 32
66 75
55 56
7 16
55 65
49 269
42 239
58 67
93 433
40 49
73 82
45 249
32 41
14 23
65 74
47 56
6 15
3 126
21 22
21 31
80 89
39 48
54 55
54 64
17 182
87 88
87 97
28 29
28 38
88 89
88 98
29 30
40 268
61 62
61 71
44 247
2 3
2 12
62 63
94 95
45 248
3 4
35 36
35 45
95 96
36 37
68 69
68 78
3 125
69 70
69 79
33 242
54 63
13 22
43 44
43 53
87 96
46 55
76 77
28 37
76 86
79 88
40 267
20 29
2 11
53 62
35 44
27 180
9 10
86 95
9 19
68 77
27 36
42 43
84 436
42 52
33 241
60 69
44 250
75 76
75 85
16 17
16 26
49 50
49 59
82 83
5 110
82 92
23 24
71 348
23 33
43 240
83 84
24 25
56 57
56 66
27 179
57 58
89 90
94 434
89 99
13 128
30 40
84 435
31 32
26 182
35 249
34 43
64 65
5 6
91 424
67 76
97 98
8 17
50 270
5 109
82 91
71 347
43 239
6 110
74 83
56 65
15 24
12 126
94 433
89 98
13 127
48 57
63 64
63 73
4 5
4 14
22 31
35 248
37 38
37 47
55 64
49 268
91 423
70 80
29 39
11 12
50 269
11 21
62 72
44 45
44 54
3 13
36 46
96 97
12 125
18 19
18 28
42 242
93 436
10 20
17 181
85 86
49 267
88 97
77 78
29 38
77 87
62 71
45 247
51 52
3 12
51 61
36 45
42 241
69 78
93 435
10 19
25 26
61 348
25 35
17 180
43 52
17 18
17 27
76 85
3 128
50 60
77 86
83 93
24 34
84 85
84 94
9 18
57 67
81 424
58 59
58 68
42 51
40 270
90 100
93 434
33 240
44 249
31 41
91 92
75 84
61 347
32 33
45 250
32 42
16 25
64 74
5 15
65 66
17 26
65 75
49 58
6 7
6 16
98 99
3 127
50 59
39 40
39 49
23 32
83 92
72 73
24 33
72 82
57 66
81 423
30 39
84 434
40 269
90 99
33 239
44 248
26 181
64 73
27 182
38 39
5 14
38 48
71 72
71 81
12 13
12 22
6 109
13 14
45 46
13 23
45 55
72 81
46 47
78 79
46 56
78 88
13 126
19 20
19 29
79 80
79 89
63 72
84 433
52 53
20 30
4 13
52 62
43 242
26 180
35 247
53 54
53 63
37 46
85 95
27 181
26 27
26 36
86 87
38 47
86 96
70 79
94 436
27 28
50 268
27 37
12 21
60 70
44 53
1 2
1 11
93 94
45 54
18 27
78 87
13 125
19 28
52 61
43 241
26 179
85 94
12 128
59 60
26 35
59 69
94 435
50 267
92 93
33 34
33 43
34 35
66 67
35 250
34 44
66 76
7 8
